p cnf 212 328
7 19 24 51 52 0
7 19 24 51 -52 0
7 19 24 -51 52 0
7 19 24 -51 -52 0
7 -19 26 53 54 0
7 -19 26 53 -54 0
7 -19 26 -53 54 0
7 -19 26 -53 -54 0
7 24 -26 55 56 0
7 24 -26 55 -56 0
7 24 -26 -55 56 0
7 24 -26 -55 -56 0
7 22 -24 57 58 0
7 22 -24 57 -58 0
7 22 -24 -57 58 0
7 22 -24 -57 -58 0
-7 22 46 59 60 0
-7 22 46 59 -60 0
-7 22 46 -59 60 0
-7 22 46 -59 -60 0
-7 22 -46 61 62 0
-7 22 -46 61 -62 0
-7 22 -46 -61 62 0
-7 22 -46 -61 -62 0
8 -22 -27 63 64 0
8 -22 -27 63 -64 0
8 -22 -27 -63 64 0
8 -22 -27 -63 -64 0
-8 -22 -27 65 66 0
-8 -22 -27 65 -66 0
-8 -22 -27 -65 66 0
-8 -22 -27 -65 -66 0
-22 27 43 67 68 0
-22 27 43 67 -68 0
-22 27 43 -67 68 0
-22 27 43 -67 -68 0
9 27 -50 69 70 0
9 27 -50 69 -70 0
9 27 -50 -69 70 0
9 27 -50 -69 -70 0
-9 -43 -50 71 72 0
-9 -43 -50 71 -72 0
-9 -43 -50 -71 72 0
-9 -43 -50 -71 -72 0
38 -43 50 73 74 0
38 -43 50 73 -74 0
38 -43 50 -73 74 0
38 -43 50 -73 -74 0
34 -38 50 75 76 0
34 -38 50 75 -76 0
34 -38 50 -75 76 0
34 -38 50 -75 -76 0
-34 -38 -41 77 78 0
-34 -38 -41 77 -78 0
-34 -38 -41 -77 78 0
-34 -38 -41 -77 -78 0
-34 41 -46 79 80 0
-34 41 -46 79 -80 0
-34 41 -46 -79 80 0
-34 41 -46 -79 -80 0
-17 -34 41 81 82 0
-17 -34 41 81 -82 0
-17 -34 41 -81 82 0
-17 -34 41 -81 -82 0
-6 17 -34 83 84 0
-6 17 -34 83 -84 0
-6 17 -34 -83 84 0
-6 17 -34 -83 -84 0
-4 6 17 85 86 0
-4 6 17 85 -86 0
-4 6 17 -85 86 0
-4 6 17 -85 -86 0
4 6 16 87 88 0
4 6 16 87 -88 0
4 6 16 -87 88 0
4 6 16 -87 -88 0
4 -16 40 89 90 0
4 -16 40 89 -90 0
4 -16 40 -89 90 0
4 -16 40 -89 -90 0
-16 19 -40 91 92 0
-16 19 -40 91 -92 0
-16 19 -40 -91 92 0
-16 19 -40 -91 -92 0
-16 29 -40 93 94 0
-16 29 -40 93 -94 0
-16 29 -40 -93 94 0
-16 29 -40 -93 -94 0
-19 -29 45 95 96 0
-19 -29 45 95 -96 0
-19 -29 45 -95 96 0
-19 -29 45 -95 -96 0
24 -29 -36 97 98 0
24 -29 -36 97 -98 0
24 -29 -36 -97 98 0
24 -29 -36 -97 -98 0
-24 -36 -45 99 100 0
-24 -36 -45 99 -100 0
-24 -36 -45 -99 100 0
-24 -36 -45 -99 -100 0
7 36 -45 101 102 0
7 36 -45 101 -102 0
7 36 -45 -101 102 0
7 36 -45 -101 -102 0
-15 36 -45 103 104 0
-15 36 -45 103 -104 0
-15 36 -45 -103 104 0
-15 36 -45 -103 -104 0
-2 15 36 105 106 0
-2 15 36 105 -106 0
-2 15 36 -105 106 0
-2 15 36 -105 -106 0
2 15 30 107 108 0
2 15 30 107 -108 0
2 15 30 -107 108 0
2 15 30 -107 -108 0
2 -30 35 109 110 0
2 -30 35 109 -110 0
2 -30 35 -109 110 0
2 -30 35 -109 -110 0
-8 -30 -35 111 112 0
-8 -30 -35 111 -112 0
-8 -30 -35 -111 112 0
-8 -30 -35 -111 -112 0
8 -35 -47 113 114 0
8 -35 -47 113 -114 0
8 -35 -47 -113 114 0
8 -35 -47 -113 -114 0
8 -28 47 115 116 0
8 -28 47 115 -116 0
8 -28 47 -115 116 0
8 -28 47 -115 -116 0
28 33 47 117 118 0
28 33 47 117 -118 0
28 33 47 -117 118 0
28 33 47 -117 -118 0
28 -33 37 119 120 0
28 -33 37 119 -120 0
28 -33 37 -119 120 0
28 -33 37 -119 -120 0
-21 -33 -37 121 122 0
-21 -33 -37 121 -122 0
-21 -33 -37 -121 122 0
-21 -33 -37 -121 -122 0
-14 21 -37 123 124 0
-14 21 -37 123 -124 0
-14 21 -37 -123 124 0
-14 21 -37 -123 -124 0
14 21 44 125 126 0
14 21 44 125 -126 0
14 21 44 -125 126 0
14 21 44 -125 -126 0
-9 14 -44 127 128 0
-9 14 -44 127 -128 0
-9 14 -44 -127 128 0
-9 14 -44 -127 -128 0
9 -13 -44 129 130 0
9 -13 -44 129 -130 0
9 -13 -44 -129 130 0
9 -13 -44 -129 -130 0
13 31 -44 131 132 0
13 31 -44 131 -132 0
13 31 -44 -131 132 0
13 31 -44 -131 -132 0
13 -31 42 133 134 0
13 -31 42 133 -134 0
13 -31 42 -133 134 0
13 -31 42 -133 -134 0
-18 -31 -42 135 136 0
-18 -31 -42 135 -136 0
-18 -31 -42 -135 136 0
-18 -31 -42 -135 -136 0
-12 18 -42 137 138 0
-12 18 -42 137 -138 0
-12 18 -42 -137 138 0
-12 18 -42 -137 -138 0
12 18 -48 139 140 0
12 18 -48 139 -140 0
12 18 -48 -139 140 0
12 18 -48 -139 -140 0
-1 12 18 141 142 0
-1 12 18 141 -142 0
-1 12 18 -141 142 0
-1 12 18 -141 -142 0
1 48 -49 143 144 0
1 48 -49 143 -144 0
1 48 -49 -143 144 0
1 48 -49 -143 -144 0
1 -32 49 145 146 0
1 -32 49 145 -146 0
1 -32 49 -145 146 0
1 -32 49 -145 -146 0
1 -11 49 147 148 0
1 -11 49 147 -148 0
1 -11 49 -147 148 0
1 -11 49 -147 -148 0
1 3 49 149 150 0
1 3 49 149 -150 0
1 3 49 -149 150 0
1 3 49 -149 -150 0
5 11 44 151 152 0
5 11 44 151 -152 0
5 11 44 -151 152 0
5 11 44 -151 -152 0
-3 5 11 153 154 0
-3 5 11 153 -154 0
-3 5 11 -153 154 0
-3 5 11 -153 -154 0
-3 -5 -20 155 156 0
-3 -5 -20 155 -156 0
-3 -5 -20 -155 156 0
-3 -5 -20 -155 -156 0
-5 20 -25 157 158 0
-5 20 -25 157 -158 0
-5 20 -25 -157 158 0
-5 20 -25 -157 -158 0
-5 23 25 159 160 0
-5 23 25 159 -160 0
-5 23 25 -159 160 0
-5 23 25 -159 -160 0
-23 25 -39 161 162 0
-23 25 -39 161 -162 0
-23 25 -39 -161 162 0
-23 25 -39 -161 -162 0
10 -23 25 163 164 0
10 -23 25 163 -164 0
10 -23 25 -163 164 0
10 -23 25 -163 -164 0
-10 -26 39 165 166 0
-10 -26 39 165 -166 0
-10 -26 39 -165 166 0
-10 -26 39 -165 -166 0
-10 24 26 167 168 0
-10 24 26 167 -168 0
-10 24 26 -167 168 0
-10 24 26 -167 -168 0
-18 38 48 169 170 0
-18 38 48 169 -170 0
-18 38 48 -169 170 0
-18 38 48 -169 -170 0
31 35 39 171 172 0
31 35 39 171 -172 0
31 35 39 -171 172 0
31 35 39 -171 -172 0
-36 38 173 174 175 0
-36 38 173 174 -175 0
-36 38 173 -174 175 0
-36 38 173 -174 -175 0
-36 38 -173 174 175 0
-36 38 -173 174 -175 0
-36 38 -173 -174 175 0
-36 38 -173 -174 -175 0
-2 -6 37 176 177 0
-2 -6 37 176 -177 0
-2 -6 37 -176 177 0
-2 -6 37 -176 -177 0
34 -39 -47 178 179 0
34 -39 -47 178 -179 0
34 -39 -47 -178 179 0
34 -39 -47 -178 -179 0
-2 3 -28 180 181 0
-2 3 -28 180 -181 0
-2 3 -28 -180 181 0
-2 3 -28 -180 -181 0
-19 -20 42 182 183 0
-19 -20 42 182 -183 0
-19 -20 42 -182 183 0
-19 -20 42 -182 -183 0
16 32 -49 184 185 0
16 32 -49 184 -185 0
16 32 -49 -184 185 0
16 32 -49 -184 -185 0
-25 -27 46 186 187 0
-25 -27 46 186 -187 0
-25 -27 46 -186 187 0
-25 -27 46 -186 -187 0
-12 16 31 188 189 0
-12 16 31 188 -189 0
-12 16 31 -188 189 0
-12 16 31 -188 -189 0
-2 -4 43 190 191 0
-2 -4 43 190 -191 0
-2 -4 43 -190 191 0
-2 -4 43 -190 -191 0
-1 23 32 192 193 0
-1 23 32 192 -193 0
-1 23 32 -192 193 0
-1 23 32 -192 -193 0
10 -17 40 194 195 0
10 -17 40 194 -195 0
10 -17 40 -194 195 0
10 -17 40 -194 -195 0
-21 34 45 196 197 0
-21 34 45 196 -197 0
-21 34 45 -196 197 0
-21 34 45 -196 -197 0
20 -21 30 198 199 0
20 -21 30 198 -199 0
20 -21 30 -198 199 0
20 -21 30 -198 -199 0
5 -13 33 200 201 0
5 -13 33 200 -201 0
5 -13 33 -200 201 0
5 -13 33 -200 -201 0
-15 -48 202 203 204 0
-15 -48 202 203 -204 0
-15 -48 202 -203 204 0
-15 -48 202 -203 -204 0
-15 -48 -202 203 204 0
-15 -48 -202 203 -204 0
-15 -48 -202 -203 204 0
-15 -48 -202 -203 -204 0
-14 29 37 205 206 0
-14 29 37 205 -206 0
-14 29 37 -205 206 0
-14 29 37 -205 -206 0
3 -14 -47 207 208 0
3 -14 -47 207 -208 0
3 -14 -47 -207 208 0
3 -14 -47 -207 -208 0
-11 35 37 209 210 0
-11 35 37 209 -210 0
-11 35 37 -209 210 0
-11 35 37 -209 -210 0
10 -32 -41 211 212 0
10 -32 -41 211 -212 0
10 -32 -41 -211 212 0
10 -32 -41 -211 -212 0
